32      4       
14      15      12      12      
0       0       0       0       0       3       2       4       6       
4       0       6       12      0       2       3       5       
10      0       7       1       0       2       7       10      
9       12      0       0       9       2       7       10      
1       4       0       0       1       3       8       9       10      
6       13      0       11      0       1       7       
5       0       3       0       4       2       8       9       
7       1       0       1       0       1       11      
7       1       0       0       8       1       11      
7       0       1       1       0       1       11      
8       0       0       4       7       2       12      14      
5       6       4       0       0       1       13      
6       7       0       2       0       2       15      16      
2       0       1       11      0       2       16      17      
2       0       13      0       1       2       17      23      
8       5       6       0       0       4       19      20      21      23      
9       0       15      6       0       1       18      
3       0       0       6       12      3       19      20      21      
10      11      0       10      0       2       22      24      
5       8       0       0       7       3       24      25      29      
2       0       15      6       0       3       24      25      29      
4       8       0       0       9       3       25      28      29      
1       0       15      0       1       2       24      29      
7       0       0       4       3       3       26      27      28      
4       8       7       0       0       2       26      27      
3       6       0       0       12      2       30      31      
10      11      0       0       2       2       30      31      
10      0       3       0       12      2       30      31      
5       0       5       9       0       2       30      31      
5       0       0       6       2       1       32      
4       4       12      0       0       1       32      
0       0       0       0       0       0       
